n=214;
k_min=7;
k_max=7;
M=[| 160, 142, 159, 121, 143, 128, 143
 | 166, 139, 153, 122, 150, 124, 144
 | 166, 139, 151, 121, 151, 125, 143
 | 164, 141, 154, 121, 147, 126, 142
 | 164, 141, 152, 121, 150, 126, 143
 | 163, 143, 151, 123, 148, 127, 142
 | 164, 141, 153, 120, 149, 126, 143
 | 163, 142, 153, 120, 149, 127, 142
 | 163, 139, 156, 122, 146, 126, 145
 | 163, 143, 153, 120, 148, 127, 142
 | 163, 143, 150, 122, 149, 128, 142
 | 164, 144, 153, 119, 147, 128, 141
 | 163, 142, 150, 122, 150, 127, 142
 | 163, 143, 152, 120, 148, 128, 142
 | 163, 144, 152, 120, 147, 128, 141
 | 163, 144, 152, 120, 148, 128, 142
 | 165, 145, 153, 119, 146, 128, 141
 | 160, 140, 161, 120, 142, 128, 146
 | 162, 141, 160, 117, 145, 127, 145
 | 164, 143, 153, 120, 147, 127, 143
 | 164, 144, 153, 120, 146, 128, 142
 | 158, 140, 158, 120, 145, 128, 147
 | 164, 144, 154, 119, 145, 128, 142
 | 164, 144, 153, 119, 147, 128, 142
 | 166, 141, 154, 118, 148, 126, 143
 | 164, 143, 153, 119, 147, 127, 142
 | 164, 142, 154, 120, 147, 127, 143
 | 164, 143, 153, 120, 148, 127, 142
 | 163, 145, 152, 120, 147, 129, 141
 | 164, 143, 154, 119, 147, 127, 143
 | 164, 145, 153, 119, 146, 128, 141
 | 164, 144, 152, 119, 148, 128, 142
 | 164, 144, 153, 119, 147, 128, 142
 | 163, 145, 151, 120, 148, 129, 141
 | 164, 145, 153, 118, 146, 128, 142
 | 165, 142, 155, 118, 147, 126, 143
 | 166, 140, 158, 119, 143, 126, 145
 | 164, 145, 153, 119, 146, 128, 142
 | 158, 142, 163, 117, 142, 129, 145
 | 158, 142, 163, 117, 142, 129, 145
 | 166, 144, 153, 118, 146, 128, 141
 | 165, 145, 152, 118, 147, 128, 142
 | 164, 143, 154, 119, 147, 127, 143
 | 158, 143, 166, 115, 140, 130, 144
 | 164, 145, 153, 118, 146, 129, 142
 | 164, 142, 159, 118, 142, 127, 144
 | 163, 144, 155, 117, 146, 128, 144
 | 158, 143, 164, 116, 140, 130, 145
 | 158, 147, 162, 115, 139, 132, 143
 | 164, 142, 158, 118, 144, 127, 145
 | 157, 145, 163, 116, 139, 132, 145
 | 166, 144, 157, 116, 143, 128, 143
 | 161, 144, 156, 115, 147, 127, 146
 | 161, 145, 156, 115, 146, 128, 145
 | 160, 145, 156, 115, 147, 128, 145
 | 159, 148, 152, 117, 148, 131, 143
 | 163, 143, 153, 120, 148, 127, 142
 | 164, 143, 153, 120, 147, 127, 142
 | 163, 141, 153, 122, 149, 126, 143
 | 164, 141, 154, 120, 148, 126, 143
 | 162, 142, 157, 117, 147, 127, 144
 | 162, 141, 157, 120, 144, 127, 145
 | 160, 144, 164, 116, 140, 129, 143
 | 158, 142, 162, 118, 140, 130, 146
 | 160, 144, 163, 115, 141, 130, 144
 | 161, 143, 162, 115, 142, 128, 145
 | 160, 147, 161, 114, 140, 132, 143
 | 160, 147, 160, 114, 140, 132, 143
 | 160, 147, 161, 114, 140, 131, 143
 | 158, 147, 162, 114, 139, 133, 144
 | 159, 137, 152, 127, 149, 126, 146
 | 164, 140, 157, 122, 145, 126, 143
 | 166, 141, 151, 122, 150, 126, 142
 | 164, 140, 152, 122, 149, 126, 143
 | 165, 141, 151, 123, 149, 126, 142
 | 165, 141, 151, 122, 149, 126, 142
 | 163, 140, 154, 123, 147, 126, 143
 | 164, 142, 152, 122, 148, 127, 142
 | 164, 139, 153, 121, 151, 125, 144
 | 163, 142, 150, 124, 148, 127, 142
 | 161, 142, 151, 125, 147, 128, 142
 | 165, 141, 151, 122, 151, 126, 142
 | 164, 141, 153, 122, 149, 126, 143
 | 164, 141, 152, 122, 148, 126, 142
 | 158, 137, 149, 131, 150, 126, 145
 | 163, 141, 154, 120, 148, 126, 143
 | 164, 141, 151, 120, 151, 126, 143
 | 163, 141, 153, 122, 148, 126, 143
 | 164, 142, 152, 121, 148, 127, 142
 | 162, 143, 150, 123, 149, 128, 141
 | 163, 144, 157, 119, 143, 129, 142
 | 163, 143, 152, 120, 149, 127, 142
 | 161, 143, 152, 118, 150, 128, 144
 | 163, 142, 152, 120, 150, 126, 144
 | 162, 144, 151, 121, 149, 128, 142
 | 164, 142, 156, 119, 145, 127, 144
 | 163, 145, 158, 117, 142, 129, 142
 | 161, 148, 150, 119, 146, 131, 141
 | 160, 145, 152, 120, 148, 129, 143
 | 162, 145, 154, 117, 147, 128, 144
 | 161, 146, 153, 117, 148, 129, 143
 | 158, 149, 155, 117, 143, 132, 142
 | 158, 149, 151, 115, 147, 133, 144
 | 149, 147, 154, 121, 138, 141, 146
 | 152, 147, 157, 116, 139, 137, 148
 | 136, 154, 144, 119, 137, 166, 139
 | 140, 148, 145, 132, 140, 151, 141
 | 139, 152, 143, 129, 139, 153, 142
 | 139, 156, 147, 113, 146, 143, 153
 | 142, 150, 146, 117, 149, 143, 150
 | 139, 153, 143, 124, 139, 157, 141
 | 139, 153, 143, 125, 139, 157, 141
 | 138, 156, 143, 121, 139, 156, 143
 | 165, 141, 155, 121, 147, 126, 143
 | 164, 142, 156, 121, 145, 127, 142
 | 165, 141, 156, 121, 146, 126, 142
 | 165, 141, 155, 121, 145, 126, 142
 | 163, 139, 153, 125, 147, 126, 144
 | 163, 141, 153, 123, 148, 126, 143
 | 163, 140, 153, 123, 148, 126, 143
 | 166, 141, 155, 120, 145, 126, 142
 | 164, 142, 151, 122, 148, 127, 142
 | 164, 141, 153, 121, 149, 126, 143
 | 163, 140, 153, 123, 148, 126, 144
 | 164, 142, 155, 119, 147, 127, 142
 | 166, 143, 154, 120, 145, 127, 142
 | 164, 144, 155, 119, 146, 128, 142
 | 155, 144, 166, 111, 141, 130, 150
 | 155, 144, 162, 112, 144, 129, 150
 | 146, 147, 157, 111, 144, 136, 154
 | 143, 153, 153, 110, 143, 141, 153
 | 137, 159, 144, 119, 139, 153, 145
 | 166, 140, 155, 121, 146, 126, 142
 | 166, 139, 156, 123, 144, 126, 143
 | 164, 141, 154, 121, 148, 126, 142
 | 164, 142, 156, 121, 145, 127, 142
 | 163, 143, 154, 120, 148, 127, 142
 | 164, 142, 152, 122, 148, 127, 142
 | 164, 142, 150, 123, 150, 127, 141
 | 164, 142, 150, 122, 149, 127, 142
 | 163, 141, 153, 123, 148, 126, 143
 | 164, 142, 154, 119, 147, 127, 142
 | 163, 143, 152, 122, 148, 128, 142
 | 163, 142, 152, 122, 148, 127, 143
 | 163, 145, 154, 117, 147, 128, 143
 | 163, 144, 155, 120, 145, 128, 142
 | 163, 142, 156, 117, 148, 126, 144
 | 164, 141, 154, 120, 148, 126, 143
 | 164, 142, 154, 120, 147, 126, 143
 | 162, 146, 152, 121, 145, 130, 141
 | 164, 142, 153, 121, 146, 127, 143
 | 159, 141, 162, 118, 141, 129, 146
 | 166, 142, 157, 114, 147, 126, 144
 | 165, 141, 154, 120, 148, 126, 144
 | 164, 144, 155, 119, 145, 128, 142
 | 164, 143, 153, 118, 148, 127, 143
 | 164, 142, 155, 118, 147, 126, 144
 | 159, 142, 164, 116, 141, 129, 145
 | 166, 141, 157, 118, 143, 126, 144
 | 165, 142, 156, 119, 143, 127, 144
 | 164, 143, 157, 118, 143, 128, 144
 | 163, 142, 158, 116, 146, 127, 144
 | 161, 141, 161, 120, 141, 128, 145
 | 158, 137, 145, 143, 142, 130, 142
 | 151, 152, 159, 110, 143, 135, 146
 | 145, 166, 150, 111, 137, 148, 140
 | 143, 161, 148, 116, 139, 150, 139
 | 139, 154, 147, 115, 146, 149, 146
 | 141, 147, 150, 119, 151, 141, 147
 | 138, 156, 148, 112, 147, 147, 149
 | 136, 164, 145, 112, 141, 151, 147
 | 143, 136, 141, 166, 139, 134, 138
 | 143, 136, 142, 165, 139, 134, 138
 | 136, 166, 144, 112, 140, 152, 146
 | 149, 147, 166, 113, 144, 133, 146
 | 140, 154, 149, 111, 147, 147, 148
 | 156, 143, 161, 111, 145, 129, 152
 | 156, 145, 159, 110, 145, 130, 151
 | 154, 141, 158, 114, 147, 128, 154
 | 154, 142, 158, 112, 147, 128, 153
 | 152, 138, 146, 121, 166, 126, 147
 | 142, 143, 151, 112, 151, 130, 166
 | 138, 152, 148, 112, 151, 140, 155
 | 140, 152, 147, 115, 147, 141, 153
 | 146, 139, 144, 134, 153, 133, 148
 | 158, 137, 145, 138, 149, 128, 141
 | 166, 135, 145, 138, 145, 126, 141
 | 163, 143, 157, 118, 145, 127, 144
 | 151, 141, 154, 126, 142, 133, 150
 | 150, 139, 150, 130, 145, 132, 150
 | 152, 141, 153, 117, 153, 129, 152
 | 142, 140, 147, 122, 161, 131, 155
 | 140, 140, 148, 119, 166, 131, 153
 | 143, 140, 148, 125, 157, 132, 153
 | 143, 140, 148, 124, 157, 132, 152
 | 140, 140, 149, 119, 164, 132, 153
 | 140, 142, 150, 117, 161, 134, 153
 | 141, 140, 148, 120, 161, 131, 155
 | 140, 140, 148, 119, 163, 131, 154
 | 141, 140, 147, 122, 160, 130, 156
 | 143, 139, 146, 125, 159, 130, 154
 | 144, 145, 146, 135, 146, 139, 142
 | 143, 139, 147, 124, 160, 131, 153
 | 143, 140, 147, 126, 156, 132, 152
 | 142, 140, 147, 122, 160, 131, 155
 | 143, 141, 147, 125, 156, 132, 154
 | 143, 141, 147, 124, 157, 132, 154
 | 149, 137, 145, 139, 149, 132, 145
 | 140, 142, 149, 117, 161, 132, 155
 | 141, 141, 150, 121, 159, 133, 153
 | 143, 140, 147, 126, 156, 132, 153
 | 143, 140, 148, 125, 157, 132, 151
 | 143, 140, 148, 124, 157, 132, 152
 | 142, 140, 148, 124, 157, 133, 151 |];
 P=[1, 1, 1, 1, 1, 1, 1, 1, 1, 1, 1, 1, 1, 1, 1, 1, 1, 3, 1, 1, 1, 3, 1, 1, 1, 1, 1, 1, 1, 1, 1, 1, 1, 1, 1, 1, 1, 1, 3, 3, 1, 1, 1, 3, 1, 1, 1, 3, 3, 1, 3, 1, 1, 1, 1, 1, 1, 1, 1, 1, 1, 1, 3, 3, 3, 3, 3, 3, 3, 3, 1, 1, 1, 1, 1, 1, 1, 1, 1, 1, 1, 1, 1, 1, 1, 1, 1, 1, 1, 1, 1, 1, 1, 1, 1, 1, 1, 1, 1, 1, 1, 1, 1, 3, 3, 6, 6, 6, 2, 2, 6, 6, 6, 1, 1, 1, 1, 1, 1, 1, 1, 1, 1, 1, 1, 1, 1, 3, 3, 3, 2, 6, 1, 1, 1, 1, 1, 1, 1, 1, 1, 1, 1, 1, 1, 1, 1, 1, 1, 1, 1, 3, 1, 1, 1, 1, 1, 3, 1, 1, 1, 1, 3, 1, 3, 2, 2, 2, 2, 2, 2, 4, 4, 2, 3, 2, 3, 3, 3, 3, 5, 7, 2, 2, 5, 1, 1, 1, 3, 3, 7, 5, 5, 5, 5, 5, 5, 5, 5, 5, 5, 2, 5, 5, 5, 5, 5, 5, 5, 5, 5, 5, 5, 5 ];